p wcnf 126 151 152 
1 -49 71 0 
1 -43 20 0 
1 31 44 0 
1 -101 -20 0 
1 122 -88 0 
1 -57 -80 0 
1 47 -117 0 
1 125 -116 0 
1 -116 -37 0 
1 -75 60 0 
1 44 30 0 
1 122 -120 0 
1 46 -94 0 
1 70 116 0 
1 -117 16 0 
1 -60 57 0 
1 93 27 0 
1 -86 -39 0 
1 -103 -58 0 
1 1 -22 0 
1 -37 39 0 
1 -16 -71 0 
1 -31 -21 0 
1 -44 -124 0 
1 -39 118 0 
1 81 -94 0 
1 88 80 0 
1 35 -99 0 
1 112 -1 0 
1 -86 126 0 
1 44 55 0 
1 -70 -9 0 
1 46 -118 0 
1 -49 -100 0 
1 75 1 0 
1 57 -116 0 
1 -18 109 0 
1 -75 65 0 
1 111 74 0 
1 -40 42 0 
1 -67 22 0 
1 -44 93 0 
1 -122 -113 0 
1 -53 -91 0 
1 -35 19 0 
1 39 -100 0 
1 46 -60 0 
1 -49 -14 0 
1 -101 119 0 
1 -63 -23 0 
1 -2 38 0 
1 -109 -104 0 
1 -112 -121 0 
1 110 -49 0 
1 -10 72 0 
1 -11 -12 0 
1 -25 -58 0 
1 -56 -14 0 
1 56 -96 0 
1 102 -53 0 
1 51 18 0 
1 6 100 0 
1 -11 22 0 
1 44 -54 0 
1 -39 -48 0 
1 -56 -48 0 
1 -55 71 0 
1 45 -110 0 
1 40 53 0 
1 1 -5 0 
1 -75 -72 0 
1 -61 -33 0 
1 55 -36 0 
1 64 107 0 
1 -68 -61 0 
1 -34 38 0 
1 -83 -22 0 
1 102 21 0 
1 23 34 0 
1 106 -103 0 
1 83 8 0 
1 -69 -106 0 
1 -96 11 0 
1 66 41 0 
1 82 106 0 
1 -3 -81 0 
1 -14 -70 0 
1 2 -19 0 
1 105 106 0 
1 -92 -72 0 
1 82 31 0 
1 -10 -38 0 
1 23 -96 0 
1 -88 48 0 
1 -46 -40 0 
1 52 -64 0 
1 -91 126 0 
1 17 -88 0 
1 -37 -82 0 
1 -22 -19 0 
1 -29 -94 0 
1 99 2 0 
1 101 -15 0 
1 -108 84 0 
1 -76 -82 0 
1 87 -40 0 
1 33 17 0 
1 -15 109 0 
1 -24 34 0 
1 -40 14 0 
1 -23 -21 0 
1 -14 -63 0 
1 -55 -70 0 
1 120 18 0 
1 -80 -92 0 
1 -90 -28 0 
1 -72 102 0 
1 -36 -45 0 
1 -94 110 0 
1 59 68 0 
1 -2 90 0 
1 1 94 0 
1 -66 -15 0 
1 30 -107 0 
1 83 -8 0 
1 -80 -93 0 
1 37 81 0 
1 -34 -60 0 
1 97 -40 0 
1 18 59 0 
1 -35 42 0 
1 -30 104 0 
1 86 30 0 
1 -1 98 0 
1 -123 5 0 
1 86 -120 0 
1 25 126 0 
1 19 64 0 
1 2 54 0 
1 80 -74 0 
1 12 59 0 
1 -51 102 0 
1 -108 107 0 
1 80 -91 0 
1 43 77 0 
1 24 -54 0 
1 80 -43 0 
1 -40 -31 0 
1 -95 92 0 
1 -110 40 0 
1 -110 61 0 
